data;

param num_top:=6;

#nodes and edges of the physical network
param n := 10;

set E := (1,2) (1,3) (1,7) (2,4) (2,7) (3,5) (4,8) (5,6) (5,7) (6,7) (6,9) (7,8) (7,9) (8,10) (9,10) ;

#nodes and edges of the virtual networks
set Nl[1] := 7 10 5 2 3 ;
set Nl[2] := 1 5 4 2 3 ;
set Nl[3] := 7 6 2 3 10 ;
set Nl[4] := 7 10 9 1 6 ;
set Nl[5] := 1 5 7 9 6 ;
set Nl[6] := 8 2 4 10 6 ;

set El[1] := (7,10) (5,10) (2,5) (2,3) (3,7) (3,10) (5,7) (2,10) (2,7) (3,5) ;
set El[2] := (1,5) (4,5) (2,4) (2,3) (1,3) (3,5) (3,4) (1,2) (2,5) (1,4) ;
set El[3] := (6,7) (2,6) (2,3) (3,10) (7,10) (2,10) (3,7) (6,10) (2,7) (3,6) ;
set El[4] := (7,10) (9,10) (1,9) (1,6) (6,7) (1,7) (1,10) (6,10) (6,9) (7,9) ;
set El[5] := (1,5) (5,7) (7,9) (6,9) (1,6) (5,6) (1,7) (6,7) (1,9) (5,9) ;
set El[6] := (2,8) (2,4) (4,10) (6,10) (6,8) (4,6) (2,6) (2,10) (8,10) (4,8) ;
